rc101_3
0 95 71 70 88 62 91 79 63 80 102 64 92 14 18 20 21 22 52 19 17 16 15 83 78 84 12 13 51 9 50 10 8 6 7 11 1 75 105 60 93 65 58 103 74 87 104 57 29 27 25 54 24 23 53 26 28 30 82 66 1 48 45 41 40 42 43 44 49 47 46 101 86 59 77 76 98 96 97 99 72 67 55 39 36 85 0